c preprocessed version of celar08pp, 39 vertices, 283 edges
p td 39 283
0 1
0 2
0 8
0 4
0 5
0 21
0 3
0 11
12 0
16 0
14 0
22 0
17 0
28 0
27 0
29 0
1 2
7 1
6 1
1 8
1 9
1 5
1 18
1 19
1 20
1 21
1 4
23 1
22 1
17 1
28 1
27 1
30 1
2 3
2 8
2 4
2 5
2 11
2 21
12 2
16 2
14 2
22 2
17 2
28 2
27 2
29 2
3 4
3 5
3 18
3 19
23 3
13 3
26 3
29 3
30 3
4 5
15 4
8 4
4 18
4 19
4 10
23 4
12 4
16 4
14 4
13 4
26 4
27 4
29 4
30 4
6 5
15 5
8 5
9 5
5 10
5 21
5 18
5 19
23 5
16 5
14 5
22 5
17 5
28 5
27 5
29 5
30 5
7 6
6 8
6 9
6 18
6 19
6 20
6 21
23 6
12 6
22 6
27 6
7 8
7 9
7 18
7 19
7 20
23 7
22 7
26 7
17 7
28 7
8 9
8 18
8 19
8 20
8 10
8 21
23 8
12 8
16 8
14 8
22 8
27 8
29 8
30 8
9 10
9 18
9 19
9 20
9 21
23 9
12 9
22 9
17 9
28 9
27 9
30 9
10 11
18 10
19 10
23 10
12 10
14 10
13 10
17 10
28 10
12 11
29 11
13 12
12 18
12 19
23 12
12 24
26 12
17 12
28 12
14 13
16 13
17 13
28 13
25 13
14 15
16 14
17 14
28 14
27 14
29 14
30 14
25 14
16 15
17 15
28 15
27 15
29 15
30 15
17 16
28 16
27 16
29 16
25 16
17 18
22 17
26 17
17 27
17 29
17 30
17 25
17 28
18 19
18 20
23 18
22 18
28 18
19 20
23 19
22 19
20 21
23 20
22 20
27 20
22 21
27 21
22 23
22 26
22 27
22 29
22 30
22 28
25 22
23 24
25 24
25 26
28 25
27 25
29 25
30 25
26 27
26 29
26 30
26 28
28 27
27 29
27 30
28 29
28 30
29 30
31 7
31 24
31 33
31 36
31 37
31 35
31 34
31 32
31 26
32 7
32 24
32 33
32 36
32 37
32 35
32 34
32 26
33 7
33 24
33 36
33 37
33 34
33 35
33 26
34 7
34 24
34 36
34 38
34 37
34 35
34 26
35 38
35 7
35 24
35 36
35 37
35 26
35 17
35 28
35 25
36 38
36 7
36 24
36 37
36 26
36 17
36 28
37 38
37 7
37 24
37 26
37 17
37 28
38 31
38 32
38 33
38 12
38 23
38 24
